36763 36347 
37653 35935 
37467 36021 
35700 36695 
37251 36129 
36672 36383 
34620 37071 
34716 37023 
34016 37202 
35908 36674 
36138 36567 
35524 36764 
35811 36676 
36563 36418 
37003 36228 
37606 35957 
35207 36891 
35377 36802 
35003 36935 
35486 36767 
34534 37096 
33661 37215 
37893 35869 
37751 35921 
35664 36714 
33279 37217 
38339 35636 
